n = 32;
rows = 78;
supports = [|
  {1},{1},
 |{1},10..24,
 |{2},{2},
 |{2},11..25,
 |{3},{3},
 |{3},12..26,
 |{4},{4},
 |{4},13..27,
 |{5},{5},
 |{5},14..28,
 |{6},{6},
 |{6},15..29,
 |{7},{7},
 |{7},16..30,
 |{8},{8},
 |{8},17..31,
 |{9},{9},
 |{9},18..32,
 |{10},{10},
 |{10},{1},
 |{10},19..32,
 |{11},{11},
 |{11},1..2,
 |{11},20..32,
 |{12},{12},
 |{12},1..3,
 |{12},21..32,
 |{13},{13},
 |{13},1..4,
 |{13},22..32,
 |{14},{14},
 |{14},1..5,
 |{14},23..32,
 |{15},{15},
 |{15},1..6,
 |{15},24..32,
 |{16},{16},
 |{16},1..7,
 |{16},25..32,
 |{17},{17},
 |{17},1..8,
 |{17},26..32,
 |{18},{18},
 |{18},1..9,
 |{18},27..32,
 |{19},{19},
 |{19},1..10,
 |{19},28..32,
 |{20},{20},
 |{20},1..11,
 |{20},29..32,
 |{21},{21},
 |{21},1..12,
 |{21},30..32,
 |{22},{22},
 |{22},1..13,
 |{22},31..32,
 |{23},{23},
 |{23},1..14,
 |{23},{32},
 |{24},{24},
 |{24},1..15,
 |{25},{25},
 |{25},2..16,
 |{26},{26},
 |{26},3..17,
 |{27},{27},
 |{27},4..18,
 |{28},{28},
 |{28},5..19,
 |{29},{29},
 |{29},6..20,
 |{30},{30},
 |{30},7..21,
 |{31},{31},
 |{31},8..22,
 |{32},{32},
 |{32},9..23 |];

t = 90;

indexes = [|
    0,6,
  | 0,13,
  | 0,15,
  | 1,8,
  | 1,21,
  | 1,22,
  | 1,26,
  | 1,30,
  | 2,5,
  | 2,22,
  | 2,27,
  | 2,29,
  | 2,30,
  | 3,7,
  | 3,8,
  | 3,9,
  | 3,20,
  | 3,23,
  | 3,25,
  | 3,27,
  | 4,16,
  | 4,19,
  | 4,23,
  | 4,30,
  | 5,10,
  | 5,14,
  | 5,25,
  | 6,13,
  | 6,15,
  | 6,17,
  | 6,20,
  | 6,23,
  | 7,15,
  | 7,16,
  | 7,21,
  | 7,31,
  | 8,9,
  | 8,29,
  | 9,21,
  | 9,26,
  | 9,28,
  | 10,11,
  | 10,16,
  | 10,24,
  | 10,25,
  | 10,27,
  | 10,29,
  | 11,13,
  | 11,18,
  | 11,20,
  | 12,17,
  | 12,18,
  | 12,20,
  | 14,26,
  | 14,28,
  | 14,29,
  | 15,16,
  | 15,17,
  | 15,20,
  | 15,21,
  | 15,22,
  | 15,23,
  | 15,25,
  | 15,26,
  | 16,31,
  | 17,18,
  | 17,21,
  | 17,22,
  | 17,25,
  | 17,26,
  | 17,27,
  | 18,24,
  | 18,29,
  | 18,30,
  | 18,31,
  | 19,20,
  | 19,25,
  | 20,25,
  | 20,27,
  | 20,31,
  | 21,28,
  | 22,28,
  | 22,29,
  | 23,25,
  | 23,27,
  | 24,28,
  | 26,31,
  | 27,29,
  | 27,31,
  | 30,31 |];

